# Solution for model sdp
# Objective value = 18
x[8.0,7.5] 1
x[8.0,8.0] 0
x[8.5,7.0] 0
x[8.5,7.5] 1
x[32.0,7.5] 1
x[32.0,8.0] 0
x[32.5,7.0] 0
x[32.5,7.5] 1
x[55.5,8.5] 1
x[56.5,7.5] 1
x[79.5,8.0] 0
x[79.5,8.5] 2
x[80.0,7.5] 1
x[80.0,8.0] 0
x[80.5,7.0] 0
x[80.5,7.5] 1
x[103.5,8.0] 0
x[103.5,8.5] 2
x[104.0,7.5] 1
x[104.0,8.0] 0
x[104.5,7.0] 0
x[104.5,7.5] 1
x[127.5,8.0] 0
x[127.5,8.5] 2
x[128.0,7.5] 1
x[128.0,8.0] 0
x[128.5,7.0] 0
x[128.5,7.5] 1
x[151.5,8.0] 0
x[151.5,8.5] 2
x[152.0,7.5] 1
x[152.0,8.0] 0
x[152.5,7.0] 0
x[152.5,7.5] 1
y[8.0,7.5] 1
y[8.0,8.0] 0
y[8.5,7.0] 0
y[8.5,7.5] 1
y[32.0,7.5] 1
y[32.0,8.0] 0
y[32.5,7.0] 0
y[32.5,7.5] 1
y[55.5,8.5] 1
y[56.5,7.5] 1
y[79.5,8.0] 0
y[79.5,8.5] 1
y[80.0,7.5] 1
y[80.0,8.0] 0
y[80.5,7.0] 0
y[80.5,7.5] 1
y[103.5,8.0] 0
y[103.5,8.5] 1
y[104.0,7.5] 1
y[104.0,8.0] 0
y[104.5,7.0] 0
y[104.5,7.5] 1
y[127.5,8.0] 0
y[127.5,8.5] 1
y[128.0,7.5] 1
y[128.0,8.0] 0
y[128.5,7.0] 0
y[128.5,7.5] 1
y[151.5,8.0] 0
y[151.5,8.5] 1
y[152.0,7.5] 1
y[152.0,8.0] 0
y[152.5,7.0] 0
y[152.5,7.5] 1
mu[8.0] 0
mu[8.5] 0
mu[9.0] 0
mu[9.5] 0
mu[10.0] 0
mu[10.5] 0
mu[11.0] 0
mu[11.5] 0
mu[12.0] 0
mu[12.5] 0
mu[13.0] 0
mu[13.5] 0
mu[14.0] 0
mu[14.5] 0
mu[15.0] 0
mu[15.5] 0
mu[32.0] 0
mu[32.5] 0
mu[33.0] 0
mu[33.5] 0
mu[34.0] 0
mu[34.5] 0
mu[35.0] 0
mu[35.5] 0
mu[36.0] 0
mu[36.5] 0
mu[37.0] 0
mu[37.5] 0
mu[38.0] 0
mu[38.5] 0
mu[39.0] 0
mu[39.5] 0
mu[55.5] 0
mu[56.0] 0
mu[56.5] 0
mu[57.0] 0
mu[57.5] 0
mu[58.0] 0
mu[58.5] 0
mu[59.0] 0
mu[59.5] 0
mu[60.0] 0
mu[60.5] 0
mu[61.0] 0
mu[61.5] 0
mu[62.0] 0
mu[62.5] 0
mu[63.0] 0
mu[63.5] 0
mu[79.5] 0
mu[80.0] 0
mu[80.5] 0
mu[81.0] 0
mu[81.5] 0
mu[82.0] 0
mu[82.5] 0
mu[83.0] 0
mu[83.5] 0
mu[84.0] 0
mu[84.5] 0
mu[85.0] 0
mu[85.5] 0
mu[86.0] 0
mu[86.5] 0
mu[87.0] 0
mu[87.5] 0
mu[103.5] 0
mu[104.0] 0
mu[104.5] 0
mu[105.0] 0
mu[105.5] 0
mu[106.0] 0
mu[106.5] 0
mu[107.0] 0
mu[107.5] 0
mu[108.0] 0
mu[108.5] 0
mu[109.0] 0
mu[109.5] 0
mu[110.0] 0
mu[110.5] 0
mu[111.0] 0
mu[111.5] 0
mu[127.5] 0
mu[128.0] 0
mu[128.5] 0
mu[129.0] 0
mu[129.5] 0
mu[130.0] 0
mu[130.5] 0
mu[131.0] 0
mu[131.5] 0
mu[132.0] 0
mu[132.5] 0
mu[133.0] 0
mu[133.5] 0
mu[134.0] 0
mu[134.5] 0
mu[135.0] 0
mu[135.5] 0
mu[151.5] 0
mu[152.0] 0
mu[152.5] 0
mu[153.0] 0
mu[153.5] 0
mu[154.0] 0
mu[154.5] 0
mu[155.0] 0
mu[155.5] 0
mu[156.0] 0
mu[156.5] 0
mu[157.0] 0
mu[157.5] 0
mu[158.0] 0
mu[158.5] 0
mu[159.0] 0
mu[159.5] 0
delta_plus[0,8.0] 0
delta_plus[0,8.5] 0
delta_plus[0,9.0] 0
delta_plus[0,9.5] 0
delta_plus[0,10.0] 0
delta_plus[0,10.5] 0
delta_plus[0,11.0] 0
delta_plus[0,11.5] 0
delta_plus[0,12.0] 0
delta_plus[0,12.5] 0
delta_plus[0,13.0] 0
delta_plus[0,13.5] 0
delta_plus[0,14.0] 0
delta_plus[0,14.5] 0
delta_plus[0,15.0] 0
delta_plus[0,15.5] 0
delta_plus[0,32.0] 0
delta_plus[0,32.5] 0
delta_plus[0,33.0] 0
delta_plus[0,33.5] 0
delta_plus[0,34.0] 0
delta_plus[0,34.5] 0
delta_plus[0,35.0] 0
delta_plus[0,35.5] 0
delta_plus[0,36.0] 0
delta_plus[0,36.5] 0
delta_plus[0,37.0] 0
delta_plus[0,37.5] 0
delta_plus[0,38.0] 0
delta_plus[0,38.5] 0
delta_plus[0,39.0] 0
delta_plus[0,39.5] 0
delta_plus[0,55.5] 0
delta_plus[0,56.0] 0
delta_plus[0,56.5] 0
delta_plus[0,57.0] 0
delta_plus[0,57.5] 0
delta_plus[0,58.0] 0
delta_plus[0,58.5] 0
delta_plus[0,59.0] 0
delta_plus[0,59.5] 0
delta_plus[0,60.0] 0
delta_plus[0,60.5] 0
delta_plus[0,61.0] 0
delta_plus[0,61.5] 0
delta_plus[0,62.0] 0
delta_plus[0,62.5] 0
delta_plus[0,63.0] 0
delta_plus[0,63.5] 0
delta_plus[0,79.5] 0
delta_plus[0,80.0] 0
delta_plus[0,80.5] 0
delta_plus[0,81.0] 0
delta_plus[0,81.5] 0
delta_plus[0,82.0] 0
delta_plus[0,82.5] 0
delta_plus[0,83.0] 0
delta_plus[0,83.5] 0
delta_plus[0,84.0] 0
delta_plus[0,84.5] 0
delta_plus[0,85.0] 0
delta_plus[0,85.5] 0
delta_plus[0,86.0] 0
delta_plus[0,86.5] 0
delta_plus[0,87.0] 0
delta_plus[0,87.5] 0
delta_plus[0,103.5] 0
delta_plus[0,104.0] 0
delta_plus[0,104.5] 0
delta_plus[0,105.0] 0
delta_plus[0,105.5] 0
delta_plus[0,106.0] 0
delta_plus[0,106.5] 0
delta_plus[0,107.0] 0
delta_plus[0,107.5] 0
delta_plus[0,108.0] 0
delta_plus[0,108.5] 0
delta_plus[0,109.0] 0
delta_plus[0,109.5] 0
delta_plus[0,110.0] 0
delta_plus[0,110.5] 0
delta_plus[0,111.0] 0
delta_plus[0,111.5] 0
delta_plus[0,127.5] 0
delta_plus[0,128.0] 0
delta_plus[0,128.5] 0
delta_plus[0,129.0] 0
delta_plus[0,129.5] 0
delta_plus[0,130.0] 0
delta_plus[0,130.5] 0
delta_plus[0,131.0] 0
delta_plus[0,131.5] 0
delta_plus[0,132.0] 0
delta_plus[0,132.5] 0
delta_plus[0,133.0] 0
delta_plus[0,133.5] 0
delta_plus[0,134.0] 0
delta_plus[0,134.5] 0
delta_plus[0,135.0] 0
delta_plus[0,135.5] 0
delta_plus[0,151.5] 0
delta_plus[0,152.0] 0
delta_plus[0,152.5] 0
delta_plus[0,153.0] 0
delta_plus[0,153.5] 0
delta_plus[0,154.0] 0
delta_plus[0,154.5] 0
delta_plus[0,155.0] 0
delta_plus[0,155.5] 0
delta_plus[0,156.0] 0
delta_plus[0,156.5] 0
delta_plus[0,157.0] 0
delta_plus[0,157.5] 0
delta_plus[0,158.0] 0
delta_plus[0,158.5] 0
delta_plus[0,159.0] 0
delta_plus[0,159.5] 0
delta_minus[0,8.0] 0
delta_minus[0,8.5] 0
delta_minus[0,9.0] 0
delta_minus[0,9.5] 0
delta_minus[0,10.0] 0
delta_minus[0,10.5] 0
delta_minus[0,11.0] 0
delta_minus[0,11.5] 0
delta_minus[0,12.0] 0
delta_minus[0,12.5] 0
delta_minus[0,13.0] 0
delta_minus[0,13.5] 0
delta_minus[0,14.0] 0
delta_minus[0,14.5] 0
delta_minus[0,15.0] 0
delta_minus[0,15.5] 0
delta_minus[0,32.0] 0
delta_minus[0,32.5] 0
delta_minus[0,33.0] 0
delta_minus[0,33.5] 0
delta_minus[0,34.0] 0
delta_minus[0,34.5] 0
delta_minus[0,35.0] 0
delta_minus[0,35.5] 0
delta_minus[0,36.0] 0
delta_minus[0,36.5] 0
delta_minus[0,37.0] 0
delta_minus[0,37.5] 0
delta_minus[0,38.0] 0
delta_minus[0,38.5] 0
delta_minus[0,39.0] 0
delta_minus[0,39.5] 0
delta_minus[0,55.5] 0
delta_minus[0,56.0] 0
delta_minus[0,56.5] 0
delta_minus[0,57.0] 0
delta_minus[0,57.5] 0
delta_minus[0,58.0] 0
delta_minus[0,58.5] 0
delta_minus[0,59.0] 0
delta_minus[0,59.5] 0
delta_minus[0,60.0] 0
delta_minus[0,60.5] 0
delta_minus[0,61.0] 0
delta_minus[0,61.5] 0
delta_minus[0,62.0] 0
delta_minus[0,62.5] 0
delta_minus[0,63.0] 0
delta_minus[0,63.5] 0
delta_minus[0,79.5] 0
delta_minus[0,80.0] 0
delta_minus[0,80.5] 0
delta_minus[0,81.0] 0
delta_minus[0,81.5] 0
delta_minus[0,82.0] 0
delta_minus[0,82.5] 0
delta_minus[0,83.0] 0
delta_minus[0,83.5] 0
delta_minus[0,84.0] 0
delta_minus[0,84.5] 0
delta_minus[0,85.0] 0
delta_minus[0,85.5] 0
delta_minus[0,86.0] 0
delta_minus[0,86.5] 0
delta_minus[0,87.0] 0
delta_minus[0,87.5] 0
delta_minus[0,103.5] 0
delta_minus[0,104.0] 0
delta_minus[0,104.5] 0
delta_minus[0,105.0] 0
delta_minus[0,105.5] 0
delta_minus[0,106.0] 0
delta_minus[0,106.5] 0
delta_minus[0,107.0] 0
delta_minus[0,107.5] 0
delta_minus[0,108.0] 0
delta_minus[0,108.5] 0
delta_minus[0,109.0] 0
delta_minus[0,109.5] 0
delta_minus[0,110.0] 0
delta_minus[0,110.5] 0
delta_minus[0,111.0] 0
delta_minus[0,111.5] 0
delta_minus[0,127.5] 0
delta_minus[0,128.0] 0
delta_minus[0,128.5] 0
delta_minus[0,129.0] 0
delta_minus[0,129.5] 0
delta_minus[0,130.0] 0
delta_minus[0,130.5] 0
delta_minus[0,131.0] 0
delta_minus[0,131.5] 0
delta_minus[0,132.0] 0
delta_minus[0,132.5] 0
delta_minus[0,133.0] 0
delta_minus[0,133.5] 0
delta_minus[0,134.0] 0
delta_minus[0,134.5] 0
delta_minus[0,135.0] 0
delta_minus[0,135.5] 0
delta_minus[0,151.5] 0
delta_minus[0,152.0] 0
delta_minus[0,152.5] 0
delta_minus[0,153.0] 0
delta_minus[0,153.5] 0
delta_minus[0,154.0] 0
delta_minus[0,154.5] 0
delta_minus[0,155.0] 0
delta_minus[0,155.5] 0
delta_minus[0,156.0] 0
delta_minus[0,156.5] 0
delta_minus[0,157.0] 0
delta_minus[0,157.5] 0
delta_minus[0,158.0] 0
delta_minus[0,158.5] 0
delta_minus[0,159.0] 0
delta_minus[0,159.5] 0
